<number of tasks>
20

<cycle time>
1000

<order strength>
0,5


<task times>
1 488
2 532
3 194
4 467
5 184
6 558
7 385
8 31
9 128
10 347
11 44
12 321
13 193
14 105
15 99
16 251
17 129
18 273
19 138
20 101

<precedence relations>
1,3
1,4
2,8
3,6
4,5
4,7
4,8
4,9
5,11
6,13
7,12
8,10
8,13
8,15
9,13
9,15
10,14
11,15
12,15
13,16
13,17
14,18
15,18
15,19
16,20
17,18

<end>
